2 100 1181
4 4 3 5 5 4 4 1 3 6
3 2
9 5 7
9 4
0 40.0 50.0 0.0 0.0 0 240
2 25.0 85.0 10.0 20.0 0 191 46 0 0 0 0 0 1 0 0 0 0
3 22.0 75.0 10.0 30.0 0 199 79 0 0 1 0 1 0 0 0 1 0
4 22.0 85.0 10.0 10.0 0 190 47 0 0 0 0 0 0 0 1 0 0
5 20.0 80.0 10.0 40.0 141 171 72 0 0 0 0 0 0 0 0 0 1
6 20.0 85.0 10.0 20.0 0 189 61 0 0 0 0 1 0 1 0 0 0
7 18.0 75.0 10.0 20.0 95 125 52 0 0 0 0 0 0 1 0 0 0
8 15.0 75.0 10.0 20.0 0 194 82 0 1 0 0 0 0 0 0 0 0
9 15.0 80.0 10.0 10.0 91 121 87 0 0 0 0 0 0 1 0 0 0
10 10.0 35.0 10.0 20.0 91 121 1 1 0 1 0 0 0 0 0 0 0
11 10.0 40.0 10.0 30.0 119 149 20 0 0 0 0 0 0 0 1 0 0
12 8.0 40.0 10.0 40.0 59 89 64 0 0 0 0 0 0 1 0 0 1
13 8.0 45.0 10.0 20.0 0 197 67 0 1 0 0 0 0 1 0 0 1
14 5.0 35.0 10.0 10.0 142 172 40 1 0 1 0 1 0 0 0 0 0
15 5.0 45.0 10.0 10.0 35 65 51 0 0 0 0 0 0 0 1 0 0
16 2.0 40.0 10.0 20.0 58 88 54 1 1 0 1 0 0 0 0 0 0
17 0.0 40.0 10.0 20.0 72 102 96 0 0 0 0 0 0 0 0 1 0
18 0.0 45.0 10.0 20.0 149 179 35 1 1 0 0 0 0 0 1 1 1
19 44.0 5.0 10.0 20.0 87 117 1 0 0 0 0 0 1 0 0 0 0
20 42.0 10.0 10.0 40.0 72 102 94 0 0 1 0 0 0 0 0 1 0
21 42.0 15.0 10.0 10.0 122 152 96 1 0 1 0 0 0 0 1 0 0
22 40.0 5.0 10.0 10.0 0 185 59 0 0 0 1 0 0 1 0 0 0
23 40.0 15.0 10.0 40.0 92 122 62 0 0 0 0 0 0 0 1 0 0
24 38.0 5.0 10.0 30.0 65 95 80 0 0 1 0 0 0 1 0 0 0
25 38.0 15.0 10.0 10.0 148 178 74 0 0 0 0 0 0 0 0 1 1
26 35.0 5.0 10.0 20.0 154 184 87 0 0 0 1 0 0 1 0 0 1
27 95.0 30.0 10.0 30.0 0 171 19 0 0 0 0 1 0 0 1 0 0
28 95.0 35.0 10.0 20.0 62 92 8 0 1 1 1 0 0 0 0 0 0
29 92.0 30.0 10.0 10.0 62 92 15 0 0 0 0 1 0 0 0 0 0
30 90.0 35.0 10.0 10.0 67 97 46 1 0 0 0 0 0 1 1 1 0
31 88.0 30.0 10.0 10.0 74 104 91 0 0 0 0 0 1 0 0 0 0
32 88.0 35.0 10.0 20.0 0 179 62 0 1 1 0 0 1 0 0 0 0
33 87.0 30.0 10.0 10.0 131 161 70 0 1 1 0 0 1 0 0 1 0
34 85.0 25.0 10.0 10.0 51 81 73 0 0 0 0 0 0 1 0 1 0
35 85.0 35.0 10.0 30.0 0 182 97 0 0 0 1 0 0 1 0 0 0
36 67.0 85.0 10.0 20.0 139 169 32 1 0 1 0 1 1 1 0 0 0
37 65.0 85.0 10.0 40.0 43 73 31 1 0 0 0 0 0 0 0 1 1
38 65.0 82.0 10.0 10.0 0 189 86 0 0 0 0 1 1 0 0 0 0
39 62.0 80.0 10.0 30.0 75 105 39 1 0 0 1 0 0 0 0 0 0
40 60.0 80.0 10.0 10.0 37 67 37 1 0 0 0 1 0 0 0 0 0
41 60.0 85.0 10.0 30.0 85 115 35 0 1 0 0 0 0 0 0 0 0
42 58.0 75.0 10.0 20.0 92 122 84 0 0 1 1 0 0 0 0 0 1
43 55.0 80.0 10.0 10.0 33 63 64 1 0 0 0 0 0 0 0 1 0
44 55.0 85.0 10.0 20.0 128 158 87 0 1 0 0 0 0 0 0 1 1
45 55.0 82.0 10.0 10.0 64 94 50 0 0 0 1 0 0 0 0 1 0
46 20.0 82.0 10.0 10.0 37 67 22 0 0 1 1 0 0 0 0 1 1
47 18.0 80.0 10.0 10.0 113 143 39 0 1 1 0 0 0 0 0 0 0
48 2.0 45.0 10.0 10.0 45 75 18 0 0 0 0 0 0 1 0 0 0
49 42.0 5.0 10.0 10.0 0 184 25 0 0 0 0 0 1 0 0 0 0
50 42.0 12.0 10.0 10.0 104 134 4 0 0 1 1 0 0 0 1 0 0
51 72.0 35.0 10.0 30.0 0 194 80 0 0 0 0 0 0 0 1 0 0
52 55.0 20.0 10.0 19.0 83 113 49 0 1 0 0 0 0 0 1 0 0
53 25.0 30.0 10.0 3.0 0 205 43 0 0 0 0 0 1 0 0 0 0
54 20.0 50.0 10.0 5.0 91 121 70 0 0 0 0 0 1 0 0 0 0
55 55.0 60.0 10.0 16.0 139 169 77 1 0 0 1 0 1 1 0 1 0
56 30.0 60.0 10.0 16.0 140 170 26 1 0 0 0 0 0 0 0 0 1
57 50.0 35.0 10.0 19.0 130 160 79 0 1 0 0 0 0 1 0 0 1
58 30.0 25.0 10.0 23.0 96 126 88 0 1 0 0 0 0 1 1 1 0
59 15.0 10.0 10.0 20.0 152 182 54 0 0 0 0 0 1 0 0 0 0
60 10.0 20.0 10.0 19.0 0 187 78 0 0 0 0 0 1 0 0 0 0
61 15.0 60.0 10.0 17.0 155 185 97 1 0 0 0 0 0 1 0 0 0
62 45.0 65.0 10.0 9.0 66 96 47 1 1 0 0 0 1 1 0 0 1
63 65.0 35.0 10.0 3.0 52 82 29 0 0 0 0 0 0 0 1 0 0
64 65.0 20.0 10.0 6.0 39 69 59 0 0 0 0 0 1 0 0 0 0
65 45.0 30.0 10.0 17.0 53 83 54 0 0 0 1 0 0 0 0 1 1
66 35.0 40.0 10.0 16.0 11 41 45 1 1 0 0 0 0 0 0 0 0
67 41.0 37.0 10.0 16.0 133 163 89 0 0 0 1 0 0 0 1 0 0
68 64.0 42.0 10.0 9.0 70 100 93 0 0 0 0 0 0 0 0 1 1
69 40.0 60.0 10.0 21.0 144 174 26 0 0 0 1 1 0 0 0 0 0
70 31.0 52.0 10.0 27.0 41 71 76 0 0 0 0 0 0 0 0 0 1
71 35.0 69.0 10.0 23.0 180 210 86 0 0 0 0 0 1 0 1 0 0
72 65.0 55.0 10.0 14.0 65 95 8 0 0 0 0 0 1 0 0 1 0
73 63.0 65.0 10.0 8.0 0 202 70 1 0 1 0 0 0 0 0 0 0
74 2.0 60.0 10.0 5.0 77 107 37 0 0 0 0 0 0 0 1 0 1
75 20.0 20.0 10.0 8.0 141 171 11 0 1 0 1 0 1 1 0 0 0
76 5.0 5.0 10.0 16.0 0 172 56 0 0 0 0 1 1 1 0 1 0
77 60.0 12.0 10.0 31.0 75 105 82 0 0 0 0 1 1 0 0 1 0
78 23.0 3.0 10.0 7.0 150 180 3 0 0 0 0 0 0 0 0 0 1
79 8.0 56.0 10.0 27.0 90 120 32 0 0 0 0 1 0 0 0 0 0
80 6.0 68.0 10.0 30.0 89 119 44 0 0 0 0 0 1 0 0 0 0
81 47.0 47.0 10.0 13.0 192 222 37 0 0 0 1 0 0 0 0 0 0
82 49.0 58.0 10.0 10.0 86 116 36 0 0 0 0 0 1 0 0 0 0
83 27.0 43.0 10.0 9.0 0 215 47 1 0 0 1 0 1 0 0 0 1
84 37.0 31.0 10.0 14.0 0 210 89 0 0 0 0 1 0 0 0 0 0
85 57.0 29.0 10.0 18.0 96 126 31 1 1 0 0 0 0 0 0 0 0
86 63.0 23.0 10.0 2.0 0 194 24 0 0 0 0 0 0 0 0 0 1
87 21.0 24.0 10.0 28.0 87 117 77 0 0 0 0 0 1 0 0 0 0
88 12.0 24.0 10.0 13.0 90 120 63 0 0 0 0 0 0 0 0 1 0
89 24.0 58.0 10.0 19.0 67 97 33 0 0 0 0 0 0 0 0 1 0
90 67.0 5.0 10.0 25.0 144 174 73 0 0 0 0 0 0 0 1 1 0
91 37.0 47.0 10.0 6.0 86 116 13 0 0 0 1 0 0 0 0 0 1
92 49.0 42.0 10.0 13.0 0 217 42 0 0 0 1 1 0 1 0 0 1
93 53.0 43.0 10.0 14.0 14 44 33 0 1 0 0 0 0 0 0 0 0
94 61.0 52.0 10.0 3.0 178 208 32 0 0 0 0 1 0 0 0 0 0
95 57.0 48.0 10.0 23.0 0 212 42 0 0 0 0 0 1 0 0 0 1
96 56.0 37.0 10.0 6.0 0 209 59 1 0 0 1 0 0 0 0 1 0
97 55.0 54.0 10.0 26.0 0 214 92 0 0 1 0 0 0 0 0 0 0
98 4.0 18.0 10.0 35.0 120 150 21 0 0 1 0 0 1 0 0 0 1
99 26.0 52.0 10.0 9.0 0 215 79 0 0 0 0 0 1 0 0 1 1
100 26.0 35.0 10.0 15.0 77 107 53 0 0 0 1 1 0 0 0 0 0
101 31.0 67.0 10.0 3.0 180 210 25 1 0 1 1 0 0 0 0 0 0